echo both

# Define variables
variable	temperature equal 300.0 # Target temperature in K
variable	tempDamp equal 0.1 # Relaxation time for thermostat in ps
variable        pressure equal 1. # Target pressure in bar
variable        pressureDamp equal 1.0 # Relaxation time for barostat in ps
variable	out_freq equal 100 # Output frequency in steps
variable        seed equal 745823 # Random seed for generating velocities

units		metal
atom_style	atomic

# Initial configuration
# Cubic diamond lattice
lattice 	diamond 5.49
region          myreg block 0 2 0 2 0 2
create_box      1 myreg
create_atoms    1 region myreg
variable 	mass equal 28.0855
mass            1 ${mass}

# Other setup
timestep	0.001
neigh_modify    delay 10 every 1
pair_style      reaxff NULL mincap 5000
pair_coeff      * * /hpcgpfs01/work/csi/hvandam/DeePMD/GPU/lammps/bench/POTENTIALS/ffield.reax Si
thermo          ${out_freq}
thermo_style 	custom step temp pe etotal epair emol press lx ly lz vol
restart 	${out_freq} restart.lmp restart2.lmp

fix             1 all property/atom q ghost yes
fix             2 all qeq/reaxff 1 0.0 10.0 1.0e-6 reaxff

# Equilibrate in NPT

fix             3 all nph iso ${pressure} ${pressure} ${pressureDamp}
fix             4 all temp/csvr ${temperature} ${temperature} ${tempDamp} ${seed}
fix             5 all momentum 100 linear 1 1 1 rescale

velocity 	all create ${temperature} ${seed} dist gaussian

run             1000 upto # 1 ps

unfix		3
unfix		4
unfix		5

reset_timestep	0

# Production run in NPT

dump            myDump all atom ${out_freq} si.lammps-dump-text

timer           timeout 00:55:00 every 1000

fix             thermo_print all print ${out_freq} "$(step) $(temp) $(press) $(enthalpy) $(vol)" file thermo.txt screen no title "#step temp press enthalpy vol"
fix             3 all nph iso ${pressure} ${pressure} ${pressureDamp}
fix             4 all temp/csvr ${temperature} ${temperature} ${tempDamp} ${seed}
fix             5 all momentum 10000 linear 1 1 1 rescale

run             10000 upto # 10 ps

write_data	data.final

write_restart   restart.lmp
